NAME : in_house_9_20
TYPE : TSP
DIMENSION : 9
EDGE_WEIGHT_TYPE : EXPLICIT
EDGE_WEIGHT_FORMAT : UPPER_ROW
COMMENT : INVERSION_SHIFT=4
EDGE_WEIGHT_SECTION
80
54
42
7
78
55
81
77
25
72
15
36
14
1
52
31
50
19
63
38
50
41
8
45
20
30
55
73
60
41
80
40
77
36
15
26
